104 105 542 541 543 544 547 546 545 548 549 560 561 562 563 564 565 566 567 474 473 472 494 495 471 470 469 468 467 466 465 464 496 497 498 519 518 520 521 522 523 526 525 524 493 492 491 490 489 488 534 536 535 487 486 485 484 483 481 482 475 476 480 479 477 478 539 537 538 540 188 187 178 182 179 181 180 166 167 163 162 168 169 170 171 177 176 175 172 174 173 108 109 107 110 111 112 114 115 116 117 106 118 119 120 121 122 123 71 70 68 69 124 125 126 127 128 129 130 137 138 139 140 141 151 150 149 152 148 147 142 143 144 146 145 158 136 135 134 133 132 131 113 161 160 159 157 153 156 155 154 164 165 203 204 202 201 200 199 198 205 206 207 208 209 210 211 212 213 214 215 216 217 223 224 222 221 220 218 219 193 194 195 196 197 184 183 185 186 229 230 533 532 531 231 228 227 189 190 192 191 226 225 232 233 530 529 528 234 235 236 237 240 239 238 246 247 245 244 243 242 241 301 302 303 304 306 305 318 317 319 320 321 297 298 299 300 257 256 248 249 250 251 252 254 253 255 261 260 259 258 262 263 264 265 266 267 271 272 269 268 270 296 295 294 293 291 292 273 274 275 276 277 290 289 288 278 279 282 281 280 287 286 285 284 283 334 335 336 337 338 339 333 332 331 330 340 341 344 343 342 366 329 328 327 326 325 324 323 322 373 374 375 376 379 378 377 315 314 316 313 312 451 311 310 309 308 307 505 504 506 507 508 509 510 511 512 527 513 514 515 516 517 503 502 501 500 499 452 453 440 441 450 449 448 447 446 442 443 444 445 381 380 392 391 390 389 388 387 385 386 382 383 384 410 411 412 356 357 358 359 361 360 401 402 403 409 408 407 406 405 404 400 399 398 397 394 393 395 396 371 372 370 369 368 367 365 364 363 362 346 345 347 348 349 350 351 352 354 355 353 413 414 415 416 417 418 419 420 421 422 423 424 425 426 427 428 429 431 430 432 433 434 435 436 437 438 439 454 455 456 457 458 459 461 462 463 460 571 572 573 0 1 2 3 4 5 6 7 8 9 10 11 14 15 16 17 18 570 569 568 19 20 21 13 12 23 22 24 25 26 27 28 29 31 30 32 36 37 38 35 33 34 558 559 550 557 556 555 46 45 44 41 40 39 42 43 47 48 49 54 53 55 56 83 82 57 58 59 60 61 63 64 67 66 65 72 73 74 75 76 77 88 78 62 79 80 81 87 86 85 84 51 52 50 91 92 90 89 93 94 97 95 96 98 99 100 553 554 552 551 101 102 103